125
[12,13,14,15,16,17,18,19,20,21,22,23,24,25,26,27,28,29,30,31,32,33,34,35,36,37,38,39,40,41,42,43,44,45,46,47,48,49,50,51,52,53,54,55,56,57,58,59,60,61,62,63,64,65,66,67,68,69,70,71,72,73,74,75,76,77,78,79,80,81,82,83,84,85,86,87]
[5,7,11,9,11,14,14,4,16,14,9,6,8,4,14,9,11,6,14,10,13,11,17,14,4,5,9,13,4,13,8,9,8,13,7,11,7,11,10,14,1,11,10,8,7,9,9,9,5,9,11,4,11,14,10,10,7,7,9,11,9,12,9,18,10,9,13,9,13,13,8,12,11,12,14,9]
